Version identifier: 12.10.0.0 | 2019-11-26 | 843d4de
CPXPARAM_WorkMem                                 28672
Tried aggregator 2 times.
Aggregator did 20 substitutions.
Reduced MIP has 73 rows, 90 columns, and 321 nonzeros.
Reduced MIP has 90 binaries, 0 generals, 0 SOSs, and 0 indicators.
Presolve time = 0,00 sec. (0,30 ticks)
Found incumbent of value 336,000000 after 0,00 sec. (0,59 ticks)
Probing time = 0,00 sec. (0,09 ticks)
Tried aggregator 1 time.
Detecting symmetries...
MIP Presolve eliminated 9 rows and 0 columns.
MIP Presolve added 18 rows and 0 columns.
Reduced MIP has 82 rows, 90 columns, and 330 nonzeros.
Reduced MIP has 90 binaries, 0 generals, 0 SOSs, and 0 indicators.
Presolve time = 0,00 sec. (0,38 ticks)
Probing time = 0,00 sec. (0,09 ticks)
Clique table members: 211.
MIP emphasis: balance optimality and feasibility.
MIP search method: dynamic search.
Parallel mode: deterministic, using up to 16 threads.
Root relaxation solution time = 0,00 sec. (0,17 ticks)

        Nodes                                         Cuts/
   Node  Left     Objective  IInf  Best Integer    Best Bound    ItCnt     Gap

*     0+    0                          336,0000        0,0000           100,00%
*     0+    0                          248,0000        0,0000           100,00%
*     0+    0                          238,0000        0,0000           100,00%
*     0+    0                          234,0000        0,0000           100,00%
      0     0      112,0000    53      234,0000      112,0000       30   52,14%
      0     0      112,0000    53      234,0000      Cuts: 66       49   52,14%
      0     0      112,0000    53      234,0000     Cuts: 116       76   52,14%
*     0+    0                          220,0000      112,0000            49,09%
*     0+    0                          217,0000      112,0000            48,39%
*     0+    0                          205,0000      112,0000            45,37%
      0     2      124,9896    57      205,0000      132,3333      100   35,45%
Elapsed time = 0,04 sec. (8,71 ticks, tree = 0,02 MB, solutions = 7)

Clique cuts applied:  18
Cover cuts applied:  82
Mixed integer rounding cuts applied:  4
Zero-half cuts applied:  2

Root node processing (before b&c):
  Real time             =    0,03 sec. (8,65 ticks)
Parallel b&c, 16 threads:
  Real time             =    0,02 sec. (3,61 ticks)
  Sync time (average)   =    0,01 sec.
  Wait time (average)   =    0,00 sec.
                          ------------
Total (root+branch&cut) =    0,05 sec. (12,26 ticks)
